10
0,7,2,12,1,16,4,8,19,11
20,0,14,2,13,5,16,12,19,4
1,7,0,15,9,12,19,8,14,17
4,12,1,0,10,18,13,15,16,20
17,12,11,10,0,8,15,8,20,3
14,19,7,18,8,0,20,9,1,20
8,3,7,9,16,10,0,20,15,1
20,4,12,8,17,2,11,0,19,14
5,16,20,1,2,13,4,10,0,18
17,12,11,10,3,8,15,8,20,6
1
10